SCIP version 5.0.0 [precision: 8 byte] [memory: block] [mode: optimized] [LP solver: NONE] [GitHash: 3bbd232]
Copyright (C) 2002-2017 Konrad-Zuse-Zentrum fuer Informationstechnik Berlin (ZIB)

External codes: 
  Readline EditLine w  GNU library for command line editing (gnu.org/s/readline)
  CppAD 20160000.1     Algorithmic Differentiation of C++ algorithms developed by B. Bell (www.coin-or.org/CppAD)
  ZLIB 1.2.5           General purpose compression library by J. Gailly and M. Adler (zlib.net)
  GMP 6.1.2            GNU Multiple Precision Arithmetic Library developed by T. Granlund (gmplib.org)

user parameter file <scip.set> not found - using default parameters

read problem <../../Split_data/output/spectf/5/1_sample_spectf.logreg>
============

File name	:	../../Split_data/output/spectf/5/1_sample_spectf.logreg
Problem name 	:	1_sample_spectf
Number of data	:	213
Number of var	:	44
The given data has linear independence

[dim=1] time: 0.009825
[dim=2] time: 0.018927
[dim=3] time: 0.027553
[dim=4] time: 0.036165
[dim=5] time: 0.04532
[dim=6] time: 0.052634
[dim=7] time: 0.05943
[dim=8] time: 0.065816
[dim=9] time: 0.072394
[dim=10] time: 0.078384
[dim=11] time: 0.08475
[dim=12] time: 0.090645
[dim=13] Time of forward = 0.098084sec.
AIC: 139.105
k: 12

[dim=44] time: 0.043831
[dim=43] time: 0.061702
[dim=42] time: 0.074733
[dim=41] time: 0.093682
[dim=40] time: 0.108939
[dim=39] time: 0.131339
[dim=38] time: 0.144408
[dim=37] time: 0.159955
[dim=36] time: 0.172986
[dim=35] time: 0.187739
[dim=34] time: 0.199751
[dim=33] time: 0.213744
[dim=32] time: 0.225088
[dim=31] time: 0.237891
[dim=30] time: 0.24994
[dim=29] time: 0.261993
[dim=28] time: 0.270582
[dim=27] Time of backward = 0.281028sec.
AIC: 149.311
k: 28
